qe/outputs/qe/cbrdelay_l0_discretize/T=5,eliminate=[I_0,I_1,I_2,I_3,I_4,lhs=L_4],pl=4.smt2
; benchmark generated from python API
(set-info :status unknown)
(declare-fun S_0 () Real)
(declare-fun S_1 () Real)
(declare-fun C () Real)
(declare-fun L_0 () Real)
(declare-fun A_0 () Real)
(declare-fun L0 () Real)
(declare-fun B () Real)
(declare-fun A_3 () Real)
(declare-fun L_1 () Real)
(declare-fun L_2 () Real)
(declare-fun A_1 () Real)
(declare-fun S_2 () Real)
(declare-fun A_2 () Real)
(declare-fun A_4 () Real)
(declare-fun S_4 () Real)
(declare-fun L_4 () Real)
(declare-fun S_3 () Real)
(assert
 (let (($x37 (>= L0 0.0)))
 (let (($x684 (>= C 5.0)))
 (let (($x574 (>= B 5.0)))
 (let (($x4576 (<= (+ (* (- 3.0) C) (* (- 1.0) L_0) (* (- 1.0) S_1) A_3) 0.0)))
 (let (($x799 (not (<= L_2 L_1))))
 (let (($x796 (not (<= L_1 L_0))))
 (let (($x6394 (or $x796 $x799 (<= (+ (* (- 3.0) C) (* (- 1.0) A_0) A_3) 0.0))))
 (let ((?x487 (* (- 1.0) A_1)))
 (let ((?x518 (* (- 1.0) B)))
 (let ((?x307 (* (- 1.0) L_2)))
 (let ((?x264 (* (- 1.0) C)))
 (let (($x5013 (or (not (<= (+ A_1 (* (- 1.0) L_0)) (+ ?x518 ?x307 A_2 ?x264))) (= (+ ?x264 A_2 ?x307 ?x518 ?x487 L_0) 0.0))))
 (let (($x64 (= L_2 L_1)))
 (let (($x4809 (or $x64 $x796 (<= (+ A_1 (* (- 1.0) L_0) L_2 (* (- 1.0) A_2) C) 0.0))))
 (let (($x1239 (not (= L_1 L_2))))
 (let ((?x562 (* (- 1.0) L_0)))
 (let ((?x838 (+ A_0 ?x562)))
 (let ((?x556 (* (- 2.0) C)))
 (let ((?x295 (* (- 1.0) L_1)))
 (let ((?x4727 (+ ?x518 ?x295 A_2 ?x556)))
 (let ((?x4677 (+ ?x518 ?x307 A_2 ?x264)))
 (let (($x4678 (<= (+ A_1 ?x562) ?x4677)))
 (let (($x2385 (= L_2 L_0)))
 (let (($x4718 (<= 0.0 (+ C ?x487 L_0 S_0))))
 (let (($x6538 (or (<= (+ ?x562 A_1 (* (- 1.0) S_2)) 0.0) (<= (+ C S_0 (* (- 1.0) S_2)) 0.0))))
 (let (($x4626 (or $x796 $x799 (<= (+ (* (- 4.0) C) ?x562 (* (- 1.0) S_0) A_3) 0.0))))
 (let (($x4547 (<= (+ A_3 ?x556 ?x487) 0.0)))
 (let (($x378 (= L_4 L_2)))
 (let (($x120 (>= S_4 S_3)))
 (let (($x36 (>= L_0 L0)))
 (let (($x111 (>= S_1 S_0)))
 (let (($x114 (>= S_2 S_1)))
 (let (($x122 (>= A_1 A_0)))
 (let (($x123 (>= A_2 A_1)))
 (let (($x124 (>= A_3 A_2)))
 (and (<= (+ A_3 ?x307) S_3) $x124 $x123 $x122 $x114 $x111 $x36 $x120 (or $x378 (<= S_4 (+ A_4 (* (- 1.0) L_4) ?x518))) (or $x64 (<= S_2 (+ A_2 ?x307 ?x518))) (>= S_0 (+ ?x518 ?x295 A_1 ?x556)) (>= S_1 (+ ?x518 ?x295 A_1 ?x264)) (or (= L_1 L_0) (<= S_1 (+ A_1 ?x295 ?x518))) (or $x64 (<= A_3 (+ A_2 ?x518 C))) (or (= (+ A_4 (* (- 1.0) L_4) ?x518) (+ A_3 ?x307 C)) $x378) (or (= L_1 L_0) $x796) (<= S_3 (+ A_3 ?x307)) (or (= L_1 L_0) (<= S_0 (+ ?x518 ?x295 A_1 ?x264))) (or (= L_1 L_0) (<= S_2 (+ A_1 ?x295 ?x518 C))) (or (= L_1 L_0) $x799 (<= A_3 (+ A_1 ?x518 (* 2.0 C)))) (<= S_4 (+ A_3 ?x295 C)) (>= S_2 (+ A_1 ?x295 ?x518)) (<= (+ ?x518 ?x295 A_1 ?x264) ?x838) (or $x796 $x799 (<= (+ ?x556 ?x562 A_3 (* (- 1.0) S_2)) 0.0)) (or $x4547 (not (<= 0.0 (+ ?x264 (* (- 1.0) A_2) A_3)))) $x4626 (or (= L_1 L_0) $x64 (= (+ A_2 ?x307) (+ A_1 ?x295 C))) (or (= L_1 L_0) (<= (+ A_2 ?x487 ?x264) 0.0) $x1239) (or $x64 $x799) (or (not (= L_2 L_4)) (<= (+ A_4 (* (- 1.0) A_3) ?x264) B)) (>= S_2 ?x4677) (or $x378 (not (<= L_4 L_2))) (<= S_4 (+ A_3 ?x307 C)) (<= S_4 (+ A_4 ?x307)) $x6538 (or $x64 (<= S_1 ?x4677)) (or $x64 (<= S_0 (+ ?x518 ?x307 A_2 ?x556)) $x4718) (or $x2385 $x4678 (not $x4718)) (or $x1239 (<= ?x4727 ?x838)) (or $x1239 (>= S_1 ?x4727)) (<= (+ ?x518 ?x307 A_2 ?x556) ?x838) (>= S_1 (+ ?x518 ?x307 A_2 ?x556)) $x4809 (<= S_2 (+ A_2 ?x295)) (>= S_0 (+ ?x518 ?x307 A_2 (* (- 3.0) C))) (<= (+ L_0 S_1 ?x487) 0.0) $x5013 (<= (+ ?x264 L_0 (* (- 1.0) A_0) S_1) 0.0) (<= A_3 (+ A_2 C)) (<= (+ ?x556 (* (- 1.0) S_1) S_2) 0.0) (<= (+ ?x556 L_0 (* (- 1.0) A_0) S_2) 0.0) $x6394 (<= (+ L_0 ?x264 ?x487 S_2) 0.0) (<= (+ (* (- 3.0) C) (* (- 1.0) S_0) S_2) 0.0) (or $x799 $x4547) (or $x796 $x799 $x4576) $x574 $x684 $x37 (<= (+ (* (- 1.0) A_0) L_0 S_0) 0.0) (<= (+ ?x556 S_1 (* (- 1.0) S_0)) 0.0))))))))))))))))))))))))))))))))))))))
(check-sat)
